c FILE /home/rafael/Documents/HappySet/MIHS/inputs/happygen/output/graph_scale_free_k10_p0.5_v50_20241127_082519.txt
c SOURCE This is a scale-free graph formed for the happy graph colouring problem.
c DESCRIPTION It was generated using the problem generator of Rhyd Lewis
c
c GRAPH STATS
c Seed                             = -754781284
c Number of Nodes                  = 50
c Number of colours k              = 10
c Number of pre-assignments        = 25
c Number of links per new node     = 5
c Density                          = 0.191837
c 
c The degrees of nodes 1 to 50, respectively, are as follows 
c [23, 22, 21, 21, 20, 19, 18, 16, 14, 13, 13, 12, 10, 10, 10, 9, 9, 9, 8, 8, 8, 8, 7, 7, 7, 7, 
c  7, 7, 7, 7, 6, 6, 6, 6, 6, 6, 6, 6, 6, 6, 6, 6, 6, 5, 5, 5, 5, 5, 5, 5] 
c  
p edge 50 235 10
e 1 2
e 1 3
e 1 4
e 1 6
e 1 7
e 1 8
e 1 9
e 1 10
e 1 11
e 1 14
e 1 17
e 1 21
e 1 24
e 1 26
e 1 27
e 1 29
e 1 30
e 1 35
e 1 36
e 1 39
e 1 45
e 1 49
e 1 50
e 2 3
e 2 4
e 2 5
e 2 6
e 2 7
e 2 8
e 2 9
e 2 11
e 2 13
e 2 16
e 2 21
e 2 23
e 2 24
e 2 25
e 2 28
e 2 30
e 2 33
e 2 34
e 2 37
e 2 41
e 2 47
e 3 4
e 3 5
e 3 7
e 3 8
e 3 9
e 3 10
e 3 11
e 3 12
e 3 15
e 3 16
e 3 19
e 3 23
e 3 26
e 3 27
e 3 31
e 3 32
e 3 34
e 3 45
e 3 47
e 4 6
e 4 7
e 4 8
e 4 9
e 4 10
e 4 12
e 4 13
e 4 14
e 4 16
e 4 17
e 4 19
e 4 20
e 4 21
e 4 34
e 4 39
e 4 42
e 4 44
e 4 46
e 5 6
e 5 7
e 5 9
e 5 12
e 5 14
e 5 15
e 5 18
e 5 19
e 5 20
e 5 23
e 5 25
e 5 31
e 5 32
e 5 34
e 5 36
e 5 37
e 5 39
e 5 44
e 6 7
e 6 8
e 6 9
e 6 10
e 6 11
e 6 12
e 6 15
e 6 16
e 6 18
e 6 23
e 6 24
e 6 30
e 6 42
e 6 43
e 6 49
e 7 9
e 7 10
e 7 14
e 7 26
e 7 31
e 7 33
e 7 38
e 7 40
e 7 41
e 7 42
e 7 44
e 7 45
e 8 15
e 8 17
e 8 18
e 8 22
e 8 24
e 8 28
e 8 31
e 8 36
e 8 39
e 8 40
e 8 50
e 9 11
e 9 13
e 9 16
e 9 20
e 9 22
e 9 28
e 9 31
e 10 12
e 10 13
e 10 19
e 10 21
e 10 26
e 10 27
e 10 39
e 10 43
e 11 17
e 11 18
e 11 22
e 11 23
e 11 26
e 11 27
e 11 34
e 11 47
e 12 22
e 12 25
e 12 37
e 12 38
e 12 40
e 12 41
e 12 46
e 13 18
e 13 25
e 13 33
e 13 37
e 13 38
e 13 43
e 14 22
e 14 24
e 14 33
e 14 35
e 14 43
e 14 46
e 15 26
e 15 29
e 15 36
e 15 40
e 15 41
e 15 48
e 16 17
e 16 19
e 16 25
e 16 44
e 17 24
e 17 32
e 17 37
e 17 44
e 18 27
e 18 28
e 18 32
e 18 49
e 19 25
e 19 38
e 19 40
e 20 24
e 20 31
e 20 36
e 20 42
e 20 50
e 21 23
e 21 29
e 21 30
e 21 50
e 22 28
e 22 41
e 22 46
e 23 32
e 25 29
e 26 35
e 27 35
e 27 48
e 28 38
e 28 46
e 29 33
e 29 43
e 29 49
e 30 39
e 30 45
e 30 47
e 32 33
e 34 35
e 35 42
e 36 48
e 37 49
e 38 50
e 40 45
e 41 47
e 42 48
e 43 48
n 9 6
n 15 3
n 17 5
n 18 5
n 21 7
n 24 5
n 25 2
n 26 3
n 27 5
n 31 6
n 32 5
n 33 5
n 34 1
n 36 3
n 38 8
n 39 10
n 40 3
n 41 3
n 42 4
n 43 7
n 44 5
n 45 3
n 46 9
n 47 3
n 49 5
